/*********************************************
 * OPL 12.9.0.0 Data
 * Author: 31523
 * Creation Date: 2024年1月18日 at 下午4:19:45
 *********************************************/

 
  // 注意下标的顺序，这里数据层次是 车间→机器→工件→工序
 
 // 可选机器, 这里设的是一个混合例子，工件1固定选一个机器，工件2都可选，工件3固定选不一样的，工件4有一道固定
 
x_fkij=
[
[
[[1,0,0],[0,1,0],[0,0,1]],  // M1 
[[0,1,0],[0,0,1],[1,0,0]],  // M2 
[[0,0,1],[1,0,0],[0,1,0]]   // M3 
],
[
[[1,0,0],[0,1,0],[0,0,1]],  // M4
[[0,1,0],[0,0,1],[1,0,0]],  // M5 
[[0,0,1],[1,0,0],[0,1,0]]   // M6 
],
[
[[1,0,0],[0,1,0],[0,0,1]],  // M7 
[[0,1,0],[0,0,1],[1,0,0]],  // M8 
[[0,0,1],[1,0,0],[0,1,0]]   // M9 
]
];

// 对应加工时间
pt_fkij =
[
[
[[67, 56, 61],[50, 38,  7],[11, 75,  4]],  // M1
[[59, 40, 10],[33, 15, 20],[43,  7, 18]],  // M2
[[71, 57, 61],[ 8, 48, 34],[52, 45, 33]],  // M3
],
[
[[11, 18,  4],[30, 73, 49],[33, 30, 64]],  // M4
[[13, 11, 48],[71, 64, 72],[61, 35, 44]]   // M5
[[56, 55, 50],[73, 61, 15],[61,  7, 41]]   // M6
],
[
[[34, 18, 70],[ 7, 31, 23],[49,  6, 41]],  // M7
[[47, 47, 20],[36, 18, 35],[ 1,  8, 38]],  // M8
[[14, 15, 75],[27,  8, 68],[37, 46, 14]]   // M9
]
];

// 工序机器故障发生率
bd_fkij =
[
[
[[0, 1, 0],[1, 0, 1],[0, 1, 1]],  // M1
[[1, 1, 0],[1, 1, 1],[0, 0, 1]],  // M2
[[0, 1, 0],[1, 0, 1],[1, 0, 1]]   // M3
], 
[
[[0, 0, 1],[1, 1, 1],[0, 1, 1]],  // M4
[[1, 1, 0],[0, 1, 1],[1, 0, 1]],  // M5
[[0, 1, 1],[1, 0, 1],[0, 1, 1]]   // M6
],
[
[[1, 1, 0],[0, 0, 1],[0, 0, 0]],  // M7
[[0, 1, 1],[1, 0, 0],[0, 0, 1]],  // M8
[[1, 0, 1],[0, 0, 1],[0, 0, 1]]   // M9
]
];

// 工序机器故障维修时间
rt_fkij =
[
[
[[3.7, 3.7, 3.7],[3.7, 3.7, 3.7],[3.7, 3.7, 3.7]],  // M1
[[3.6, 3.6, 3.6],[3.6, 3.6, 3.6],[3.6, 3.6, 3.6]],  // M2
[[3.4, 3.4, 3.4],[3.4, 3.4, 3.4],[3.4, 3.4, 3.4]],  // M3
],
[
[[3.8, 3.8, 3.8],[3.8, 3.8, 3.8],[3.8, 3.8, 3.8]],  // M4
[[2.6, 2.6, 2.6],[2.6, 2.6, 2.6],[2.6, 2.6, 2.6]],  // M5
[[2.3, 2.3, 2.3],[2.3, 2.3, 2.3],[2.3, 2.3, 2.3]],  // M6
],
[
[[2.8, 2.8, 2.8],[2.8, 2.8, 2.8],[2.8, 2.8, 2.8]],  // M7
[[2.5, 2.5, 2.5],[2.5, 2.5, 2.5],[2.5, 2.5, 2.5]]   // M8
[[2.7, 2.7, 2.7],[2.7, 2.7, 2.7],[2.7, 2.7, 2.7]]   // M9
]
];